data;
set K:= K1 K2 K3 K4 K5 K6 K7 K8 K9 K10 ;

set F:= F1 F2 F3 ;

set Q:= Q1 Q2 ;

param T:= 45;
param V: 
	K1  K2  K3  K4  K5  K6  K7  K8  K9  K10 :=
Q1	1   1   1   1   1   1   0   0   0   0   
Q2	0   0   0   0   0   0   1   1   1   1   
; # if resorce k is of type q

param TF:= 
K1 6
K2 6
K3 6
K4 6
K5 6
K6 6
K7 12
K8 12
K9 12
K10 12
; # number of continuous time slots resource can fly

param TR:= 
K1 2
K2 2
K3 2
K4 2
K5 2
K6 2
K7 4
K8 4
K9 4
K10 4
; #  number of continuous time slots resource k needs to rest between flights

param P:= 
K1 36
K2 36
K3 36
K4 36
K5 36
K6 36
K7 36
K8 36
K9 36
K10 36
; #  number of continuous time slots a pilot can be present including rest times for resource k 

param N:= 
K1 4
K2 4
K3 4
K4 4
K5 4
K6 4
K7 2
K8 2
K9 2
K10 2
; # max number of flights resource k can fly in the total time period

param A: 
	K1  K2  K3  K4  K5  K6  K7  K8  K9  K10 :=
1	1   1   1   1   1   1   1   1   1   1   
2	1   1   1   1   1   1   1   1   1   1   
3	1   1   1   1   1   1   1   1   1   1   
4	1   1   1   1   1   1   1   1   1   1   
5	1   1   1   1   1   1   1   1   1   1   
6	1   1   1   1   1   1   1   1   1   1   
7	1   1   1   1   1   1   1   1   1   1   
8	1   1   1   1   1   1   1   1   1   1   
9	1   1   1   1   1   1   1   1   1   1   
10	1   1   1   1   1   1   1   1   1   1   
11	1   1   1   1   1   1   1   1   1   1   
12	1   1   1   1   1   1   1   1   1   1   
13	1   1   1   1   1   1   1   1   1   1   
14	1   1   1   1   1   1   1   1   1   1   
15	1   1   1   1   1   1   1   1   1   1   
16	1   1   1   1   1   1   1   1   1   1   
17	1   1   1   1   1   1   1   1   1   1   
18	1   1   1   1   1   1   1   1   1   1   
19	1   1   1   1   1   1   1   1   1   1   
20	1   1   1   1   1   1   1   1   1   1   
21	1   1   1   1   1   1   1   1   1   1   
22	1   1   1   1   1   1   1   1   1   1   
23	1   1   1   1   1   1   1   1   1   1   
24	1   1   1   1   1   1   1   1   1   1   
25	1   1   1   1   1   1   1   1   1   1   
26	1   1   1   1   1   1   1   1   1   1   
27	1   1   1   1   1   1   1   1   1   1   
28	1   1   1   1   1   1   1   1   1   1   
29	1   1   1   1   1   1   1   1   1   1   
30	1   1   1   1   1   1   1   1   1   1   
31	1   1   1   1   1   1   1   1   1   1   
32	1   1   1   1   1   1   1   1   1   1   
33	1   1   1   1   1   1   1   1   1   1   
34	1   1   1   1   1   1   1   1   1   1   
35	1   1   1   1   1   1   1   1   1   1   
36	1   1   1   1   1   1   1   1   1   1   
37	1   1   1   1   1   1   1   1   1   1   
38	1   1   1   1   1   1   1   1   1   1   
39	1   1   1   1   1   1   1   1   1   1   
40	1   1   1   1   1   1   1   1   1   1   
41	1   1   1   1   1   1   1   1   1   1   
42	1   1   1   1   1   1   1   1   1   1   
43	1   1   1   1   1   1   1   1   1   1   
44	1   1   1   1   1   1   1   1   1   1   
45	1   1   1   1   1   1   1   1   1   1   
; # availability of resorce k in time slot t

param B: 
	F1  F2  F3  :=
Q1	0   1   0   
Q2	0   0   0   
; # if front f requires resources of type q

param U: 
	F1  F2  F3  :=
K1	0   0   0   
K2	0   0   0   
K3	0   0   0   
K4	0   0   0   
K5	0   0   0   
K6	0   0   0   
K7	1   1   1   
K8	2   2   2   
K9	2   2   2   
K10	0   0   0   
; # transit time of resource

param C:= 
K1 900
K2 900
K3 900
K4 1500
K5 4500
K6 2100
K7 5500
K8 5500
K9 5500
K10 5500
; #  water capacity of resource k

param S:= 
F1 9
F2 9
F3 8
; # max number of resources that can fly at front f in the same time slot

param D:= 

[*,*,F1 ]:  K1    K2    K3    K4    K5    K6    K7    K8    K9    K10   :=
1           2.00  2.00  2.00  2.00  1.60  2.00  1.20  1.20  1.20  1.20  
2           2.00  2.00  2.00  2.00  1.60  2.00  1.20  1.20  1.20  1.20  
3           2.00  2.00  2.00  2.00  1.60  2.00  1.20  1.20  1.20  1.20  
4           2.00  2.00  2.00  2.00  1.60  2.00  1.20  1.20  1.20  1.20  
5           2.00  2.00  2.00  2.00  1.60  2.00  1.20  1.20  1.20  1.20  
6           2.00  2.00  2.00  2.00  1.60  2.00  1.20  1.20  1.20  1.20  
7           2.00  2.00  2.00  2.00  1.60  2.00  1.20  1.20  1.20  1.20  
8           2.00  2.00  2.00  2.00  1.60  2.00  1.20  1.20  1.20  1.20  
9           2.00  2.00  2.00  2.00  1.60  2.00  1.20  1.20  1.20  1.20  
10          2.00  2.00  2.00  2.00  1.60  2.00  1.20  1.20  1.20  1.20  
11          2.00  2.00  2.00  2.00  1.60  2.00  1.20  1.20  1.20  1.20  
12          2.00  2.00  2.00  2.00  1.60  2.00  1.20  1.20  1.20  1.20  
13          2.00  2.00  2.00  2.00  1.60  2.00  1.20  1.20  1.20  1.20  
14          2.00  2.00  2.00  2.00  1.60  2.00  1.20  1.20  1.20  1.20  
15          2.00  2.00  2.00  2.00  1.60  2.00  1.20  1.20  1.20  1.20  
16          2.00  2.00  2.00  2.00  1.60  2.00  1.20  1.20  1.20  1.20  
17          2.00  2.00  2.00  2.00  1.60  2.00  1.20  1.20  1.20  1.20  
18          2.00  2.00  2.00  2.00  1.60  2.00  1.20  1.20  1.20  1.20  
19          2.00  2.00  2.00  2.00  1.60  2.00  1.20  1.20  1.20  1.20  
20          2.00  2.00  2.00  2.00  1.60  2.00  1.20  1.20  1.20  1.20  
21          2.00  2.00  2.00  2.00  1.60  2.00  1.20  1.20  1.20  1.20  
22          2.00  2.00  2.00  2.00  1.60  2.00  1.20  1.20  1.20  1.20  
23          2.00  2.00  2.00  2.00  1.60  2.00  1.20  1.20  1.20  1.20  
24          2.00  2.00  2.00  2.00  1.60  2.00  1.20  1.20  1.20  1.20  
25          1.90  1.90  1.90  1.90  1.52  1.90  1.14  1.14  1.14  1.14  
26          1.90  1.90  1.90  1.90  1.52  1.90  1.14  1.14  1.14  1.14  
27          1.90  1.90  1.90  1.90  1.52  1.90  1.14  1.14  1.14  1.14  
28          1.90  1.90  1.90  1.90  1.52  1.90  1.14  1.14  1.14  1.14  
29          1.90  1.90  1.90  1.90  1.52  1.90  1.14  1.14  1.14  1.14  
30          1.90  1.90  1.90  1.90  1.52  1.90  1.14  1.14  1.14  1.14  
31          1.90  1.90  1.90  1.90  1.52  1.90  1.14  1.14  1.14  1.14  
32          1.90  1.90  1.90  1.90  1.52  1.90  1.14  1.14  1.14  1.14  
33          1.90  1.90  1.90  1.90  1.52  1.90  1.14  1.14  1.14  1.14  
34          2.00  2.00  2.00  2.00  1.60  2.00  1.20  1.20  1.20  1.20  
35          2.00  2.00  2.00  2.00  1.60  2.00  1.20  1.20  1.20  1.20  
36          2.00  2.00  2.00  2.00  1.60  2.00  1.20  1.20  1.20  1.20  
37          2.00  2.00  2.00  2.00  1.60  2.00  1.20  1.20  1.20  1.20  
38          2.00  2.00  2.00  2.00  1.60  2.00  1.20  1.20  1.20  1.20  
39          2.00  2.00  2.00  2.00  1.60  2.00  1.20  1.20  1.20  1.20  
40          2.00  2.00  2.00  2.00  1.60  2.00  1.20  1.20  1.20  1.20  
41          2.00  2.00  2.00  2.00  1.60  2.00  1.20  1.20  1.20  1.20  
42          2.00  2.00  2.00  2.00  1.60  2.00  1.20  1.20  1.20  1.20  
43          2.00  2.00  2.00  2.00  1.60  2.00  1.20  1.20  1.20  1.20  
44          2.00  2.00  2.00  2.00  1.60  2.00  1.20  1.20  1.20  1.20  
45          2.00  2.00  2.00  2.00  1.60  2.00  1.20  1.20  1.20  1.20  

[*,*,F2 ]:  K1    K2    K3    K4    K5    K6    K7    K8    K9    K10   :=
1           1.82  1.82  1.82  1.82  1.45  1.82  1.09  1.09  1.09  1.09  
2           1.82  1.82  1.82  1.82  1.45  1.82  1.09  1.09  1.09  1.09  
3           1.82  1.82  1.82  1.82  1.45  1.82  1.09  1.09  1.09  1.09  
4           1.82  1.82  1.82  1.82  1.45  1.82  1.09  1.09  1.09  1.09  
5           1.82  1.82  1.82  1.82  1.45  1.82  1.09  1.09  1.09  1.09  
6           1.82  1.82  1.82  1.82  1.45  1.82  1.09  1.09  1.09  1.09  
7           1.82  1.82  1.82  1.82  1.45  1.82  1.09  1.09  1.09  1.09  
8           1.82  1.82  1.82  1.82  1.45  1.82  1.09  1.09  1.09  1.09  
9           1.82  1.82  1.82  1.82  1.45  1.82  1.09  1.09  1.09  1.09  
10          1.82  1.82  1.82  1.82  1.45  1.82  1.09  1.09  1.09  1.09  
11          1.82  1.82  1.82  1.82  1.45  1.82  1.09  1.09  1.09  1.09  
12          1.82  1.82  1.82  1.82  1.45  1.82  1.09  1.09  1.09  1.09  
13          1.82  1.82  1.82  1.82  1.45  1.82  1.09  1.09  1.09  1.09  
14          1.82  1.82  1.82  1.82  1.45  1.82  1.09  1.09  1.09  1.09  
15          1.82  1.82  1.82  1.82  1.45  1.82  1.09  1.09  1.09  1.09  
16          1.82  1.82  1.82  1.82  1.45  1.82  1.09  1.09  1.09  1.09  
17          1.82  1.82  1.82  1.82  1.45  1.82  1.09  1.09  1.09  1.09  
18          1.82  1.82  1.82  1.82  1.45  1.82  1.09  1.09  1.09  1.09  
19          1.82  1.82  1.82  1.82  1.45  1.82  1.09  1.09  1.09  1.09  
20          1.82  1.82  1.82  1.82  1.45  1.82  1.09  1.09  1.09  1.09  
21          1.82  1.82  1.82  1.82  1.45  1.82  1.09  1.09  1.09  1.09  
22          1.82  1.82  1.82  1.82  1.45  1.82  1.09  1.09  1.09  1.09  
23          1.82  1.82  1.82  1.82  1.45  1.82  1.09  1.09  1.09  1.09  
24          1.82  1.82  1.82  1.82  1.45  1.82  1.09  1.09  1.09  1.09  
25          1.73  1.73  1.73  1.73  1.38  1.73  1.04  1.04  1.04  1.04  
26          1.73  1.73  1.73  1.73  1.38  1.73  1.04  1.04  1.04  1.04  
27          1.73  1.73  1.73  1.73  1.38  1.73  1.04  1.04  1.04  1.04  
28          1.73  1.73  1.73  1.73  1.38  1.73  1.04  1.04  1.04  1.04  
29          1.73  1.73  1.73  1.73  1.38  1.73  1.04  1.04  1.04  1.04  
30          1.73  1.73  1.73  1.73  1.38  1.73  1.04  1.04  1.04  1.04  
31          1.73  1.73  1.73  1.73  1.38  1.73  1.04  1.04  1.04  1.04  
32          1.73  1.73  1.73  1.73  1.38  1.73  1.04  1.04  1.04  1.04  
33          1.73  1.73  1.73  1.73  1.38  1.73  1.04  1.04  1.04  1.04  
34          1.82  1.82  1.82  1.82  1.45  1.82  1.09  1.09  1.09  1.09  
35          1.82  1.82  1.82  1.82  1.45  1.82  1.09  1.09  1.09  1.09  
36          1.82  1.82  1.82  1.82  1.45  1.82  1.09  1.09  1.09  1.09  
37          1.82  1.82  1.82  1.82  1.45  1.82  1.09  1.09  1.09  1.09  
38          1.82  1.82  1.82  1.82  1.45  1.82  1.09  1.09  1.09  1.09  
39          1.82  1.82  1.82  1.82  1.45  1.82  1.09  1.09  1.09  1.09  
40          1.82  1.82  1.82  1.82  1.45  1.82  1.09  1.09  1.09  1.09  
41          1.82  1.82  1.82  1.82  1.45  1.82  1.09  1.09  1.09  1.09  
42          1.82  1.82  1.82  1.82  1.45  1.82  1.09  1.09  1.09  1.09  
43          1.82  1.82  1.82  1.82  1.45  1.82  1.09  1.09  1.09  1.09  
44          1.82  1.82  1.82  1.82  1.45  1.82  1.09  1.09  1.09  1.09  
45          1.82  1.82  1.82  1.82  1.45  1.82  1.09  1.09  1.09  1.09  

[*,*,F3 ]:  K1    K2    K3    K4    K5    K6    K7    K8    K9    K10   :=
1           1.69  1.69  1.69  1.69  1.34  1.69  1.01  1.01  1.01  1.01  
2           1.69  1.69  1.69  1.69  1.34  1.69  1.01  1.01  1.01  1.01  
3           1.69  1.69  1.69  1.69  1.34  1.69  1.01  1.01  1.01  1.01  
4           1.69  1.69  1.69  1.69  1.34  1.69  1.01  1.01  1.01  1.01  
5           1.69  1.69  1.69  1.69  1.34  1.69  1.01  1.01  1.01  1.01  
6           1.69  1.69  1.69  1.69  1.34  1.69  1.01  1.01  1.01  1.01  
7           1.69  1.69  1.69  1.69  1.34  1.69  1.01  1.01  1.01  1.01  
8           1.69  1.69  1.69  1.69  1.34  1.69  1.01  1.01  1.01  1.01  
9           1.69  1.69  1.69  1.69  1.34  1.69  1.01  1.01  1.01  1.01  
10          1.69  1.69  1.69  1.69  1.34  1.69  1.01  1.01  1.01  1.01  
11          1.69  1.69  1.69  1.69  1.34  1.69  1.01  1.01  1.01  1.01  
12          1.69  1.69  1.69  1.69  1.34  1.69  1.01  1.01  1.01  1.01  
13          1.69  1.69  1.69  1.69  1.34  1.69  1.01  1.01  1.01  1.01  
14          1.69  1.69  1.69  1.69  1.34  1.69  1.01  1.01  1.01  1.01  
15          1.69  1.69  1.69  1.69  1.34  1.69  1.01  1.01  1.01  1.01  
16          1.69  1.69  1.69  1.69  1.34  1.69  1.01  1.01  1.01  1.01  
17          1.69  1.69  1.69  1.69  1.34  1.69  1.01  1.01  1.01  1.01  
18          1.69  1.69  1.69  1.69  1.34  1.69  1.01  1.01  1.01  1.01  
19          1.69  1.69  1.69  1.69  1.34  1.69  1.01  1.01  1.01  1.01  
20          1.69  1.69  1.69  1.69  1.34  1.69  1.01  1.01  1.01  1.01  
21          1.69  1.69  1.69  1.69  1.34  1.69  1.01  1.01  1.01  1.01  
22          1.69  1.69  1.69  1.69  1.34  1.69  1.01  1.01  1.01  1.01  
23          1.69  1.69  1.69  1.69  1.34  1.69  1.01  1.01  1.01  1.01  
24          1.69  1.69  1.69  1.69  1.34  1.69  1.01  1.01  1.01  1.01  
25          1.60  1.60  1.60  1.60  1.28  1.60  0.96  0.96  0.96  0.96  
26          1.60  1.60  1.60  1.60  1.28  1.60  0.96  0.96  0.96  0.96  
27          1.60  1.60  1.60  1.60  1.28  1.60  0.96  0.96  0.96  0.96  
28          1.60  1.60  1.60  1.60  1.28  1.60  0.96  0.96  0.96  0.96  
29          1.60  1.60  1.60  1.60  1.28  1.60  0.96  0.96  0.96  0.96  
30          1.60  1.60  1.60  1.60  1.28  1.60  0.96  0.96  0.96  0.96  
31          1.60  1.60  1.60  1.60  1.28  1.60  0.96  0.96  0.96  0.96  
32          1.60  1.60  1.60  1.60  1.28  1.60  0.96  0.96  0.96  0.96  
33          1.60  1.60  1.60  1.60  1.28  1.60  0.96  0.96  0.96  0.96  
34          1.69  1.69  1.69  1.69  1.34  1.69  1.01  1.01  1.01  1.01  
35          1.69  1.69  1.69  1.69  1.34  1.69  1.01  1.01  1.01  1.01  
36          1.69  1.69  1.69  1.69  1.34  1.69  1.01  1.01  1.01  1.01  
37          1.69  1.69  1.69  1.69  1.34  1.69  1.01  1.01  1.01  1.01  
38          1.69  1.69  1.69  1.69  1.34  1.69  1.01  1.01  1.01  1.01  
39          1.69  1.69  1.69  1.69  1.34  1.69  1.01  1.01  1.01  1.01  
40          1.69  1.69  1.69  1.69  1.34  1.69  1.01  1.01  1.01  1.01  
41          1.69  1.69  1.69  1.69  1.34  1.69  1.01  1.01  1.01  1.01  
42          1.69  1.69  1.69  1.69  1.34  1.69  1.01  1.01  1.01  1.01  
43          1.69  1.69  1.69  1.69  1.34  1.69  1.01  1.01  1.01  1.01  
44          1.69  1.69  1.69  1.69  1.34  1.69  1.01  1.01  1.01  1.01  
45          1.69  1.69  1.69  1.69  1.34  1.69  1.01  1.01  1.01  1.01  
; # downloads resource k can do at front f in time t if intermediate time slot

param E:= 

[*,*,F1 ]:  K1    K2    K3    K4    K5    K6    K7    K8    K9    K10   :=
1           0.48  0.16  0.56  0.68  0.59  0.20  0.28  0.12  0.58  0.34  
2           0.48  0.16  0.56  0.68  0.59  0.20  0.28  0.12  0.58  0.34  
3           0.48  0.16  0.56  0.68  0.59  0.20  0.28  0.12  0.58  0.34  
4           0.48  0.16  0.56  0.68  0.59  0.20  0.28  0.12  0.58  0.34  
5           0.48  0.16  0.56  0.68  0.59  0.20  0.28  0.12  0.58  0.34  
6           0.48  0.16  0.56  0.68  0.59  0.20  0.28  0.12  0.58  0.34  
7           0.48  0.16  0.56  0.68  0.59  0.20  0.28  0.12  0.58  0.34  
8           0.48  0.16  0.56  0.68  0.59  0.20  0.28  0.12  0.58  0.34  
9           0.48  0.16  0.56  0.68  0.59  0.20  0.28  0.12  0.58  0.34  
10          0.48  0.16  0.56  0.68  0.59  0.20  0.28  0.12  0.58  0.34  
11          0.48  0.16  0.56  0.68  0.59  0.20  0.28  0.12  0.58  0.34  
12          0.48  0.16  0.56  0.68  0.59  0.20  0.28  0.12  0.58  0.34  
13          0.48  0.16  0.56  0.68  0.59  0.20  0.28  0.12  0.58  0.34  
14          0.48  0.16  0.56  0.68  0.59  0.20  0.28  0.12  0.58  0.34  
15          0.48  0.16  0.56  0.68  0.59  0.20  0.28  0.12  0.58  0.34  
16          0.48  0.16  0.56  0.68  0.59  0.20  0.28  0.12  0.58  0.34  
17          0.48  0.16  0.56  0.68  0.59  0.20  0.28  0.12  0.58  0.34  
18          0.48  0.16  0.56  0.68  0.59  0.20  0.28  0.12  0.58  0.34  
19          0.48  0.16  0.56  0.68  0.59  0.20  0.28  0.12  0.58  0.34  
20          0.48  0.16  0.56  0.68  0.59  0.20  0.28  0.12  0.58  0.34  
21          0.48  0.16  0.56  0.68  0.59  0.20  0.28  0.12  0.58  0.34  
22          0.48  0.16  0.56  0.68  0.59  0.20  0.28  0.12  0.58  0.34  
23          0.48  0.16  0.56  0.68  0.59  0.20  0.28  0.12  0.58  0.34  
24          0.48  0.16  0.56  0.68  0.59  0.20  0.28  0.12  0.58  0.34  
25          0.46  0.15  0.53  0.65  0.56  0.19  0.26  0.11  0.55  0.32  
26          0.46  0.15  0.53  0.65  0.56  0.19  0.26  0.11  0.55  0.32  
27          0.46  0.15  0.53  0.65  0.56  0.19  0.26  0.11  0.55  0.32  
28          0.46  0.15  0.53  0.65  0.56  0.19  0.26  0.11  0.55  0.32  
29          0.46  0.15  0.53  0.65  0.56  0.19  0.26  0.11  0.55  0.32  
30          0.46  0.15  0.53  0.65  0.56  0.19  0.26  0.11  0.55  0.32  
31          0.46  0.15  0.53  0.65  0.56  0.19  0.26  0.11  0.55  0.32  
32          0.46  0.15  0.53  0.65  0.56  0.19  0.26  0.11  0.55  0.32  
33          0.46  0.15  0.53  0.65  0.56  0.19  0.26  0.11  0.55  0.32  
34          0.48  0.16  0.56  0.68  0.59  0.20  0.28  0.12  0.58  0.34  
35          0.48  0.16  0.56  0.68  0.59  0.20  0.28  0.12  0.58  0.34  
36          0.48  0.16  0.56  0.68  0.59  0.20  0.28  0.12  0.58  0.34  
37          0.48  0.16  0.56  0.68  0.59  0.20  0.28  0.12  0.58  0.34  
38          0.48  0.16  0.56  0.68  0.59  0.20  0.28  0.12  0.58  0.34  
39          0.48  0.16  0.56  0.68  0.59  0.20  0.28  0.12  0.58  0.34  
40          0.48  0.16  0.56  0.68  0.59  0.20  0.28  0.12  0.58  0.34  
41          0.48  0.16  0.56  0.68  0.59  0.20  0.28  0.12  0.58  0.34  
42          0.48  0.16  0.56  0.68  0.59  0.20  0.28  0.12  0.58  0.34  
43          0.48  0.16  0.56  0.68  0.59  0.20  0.28  0.12  0.58  0.34  
44          0.48  0.16  0.56  0.68  0.59  0.20  0.28  0.12  0.58  0.34  
45          0.48  0.16  0.56  0.68  0.59  0.20  0.28  0.12  0.58  0.34  

[*,*,F2 ]:  K1    K2    K3    K4    K5    K6    K7    K8    K9    K10   :=
1           0.42  0.15  0.67  0.78  0.58  0.13  0.23  0.10  0.58  0.24  
2           0.42  0.15  0.67  0.78  0.58  0.13  0.23  0.10  0.58  0.24  
3           0.42  0.15  0.67  0.78  0.58  0.13  0.23  0.10  0.58  0.24  
4           0.42  0.15  0.67  0.78  0.58  0.13  0.23  0.10  0.58  0.24  
5           0.42  0.15  0.67  0.78  0.58  0.13  0.23  0.10  0.58  0.24  
6           0.42  0.15  0.67  0.78  0.58  0.13  0.23  0.10  0.58  0.24  
7           0.42  0.15  0.67  0.78  0.58  0.13  0.23  0.10  0.58  0.24  
8           0.42  0.15  0.67  0.78  0.58  0.13  0.23  0.10  0.58  0.24  
9           0.42  0.15  0.67  0.78  0.58  0.13  0.23  0.10  0.58  0.24  
10          0.42  0.15  0.67  0.78  0.58  0.13  0.23  0.10  0.58  0.24  
11          0.42  0.15  0.67  0.78  0.58  0.13  0.23  0.10  0.58  0.24  
12          0.42  0.15  0.67  0.78  0.58  0.13  0.23  0.10  0.58  0.24  
13          0.42  0.15  0.67  0.78  0.58  0.13  0.23  0.10  0.58  0.24  
14          0.42  0.15  0.67  0.78  0.58  0.13  0.23  0.10  0.58  0.24  
15          0.42  0.15  0.67  0.78  0.58  0.13  0.23  0.10  0.58  0.24  
16          0.42  0.15  0.67  0.78  0.58  0.13  0.23  0.10  0.58  0.24  
17          0.42  0.15  0.67  0.78  0.58  0.13  0.23  0.10  0.58  0.24  
18          0.42  0.15  0.67  0.78  0.58  0.13  0.23  0.10  0.58  0.24  
19          0.42  0.15  0.67  0.78  0.58  0.13  0.23  0.10  0.58  0.24  
20          0.42  0.15  0.67  0.78  0.58  0.13  0.23  0.10  0.58  0.24  
21          0.42  0.15  0.67  0.78  0.58  0.13  0.23  0.10  0.58  0.24  
22          0.42  0.15  0.67  0.78  0.58  0.13  0.23  0.10  0.58  0.24  
23          0.42  0.15  0.67  0.78  0.58  0.13  0.23  0.10  0.58  0.24  
24          0.42  0.15  0.67  0.78  0.58  0.13  0.23  0.10  0.58  0.24  
25          0.40  0.14  0.64  0.74  0.55  0.12  0.22  0.09  0.55  0.23  
26          0.40  0.14  0.64  0.74  0.55  0.12  0.22  0.09  0.55  0.23  
27          0.40  0.14  0.64  0.74  0.55  0.12  0.22  0.09  0.55  0.23  
28          0.40  0.14  0.64  0.74  0.55  0.12  0.22  0.09  0.55  0.23  
29          0.40  0.14  0.64  0.74  0.55  0.12  0.22  0.09  0.55  0.23  
30          0.40  0.14  0.64  0.74  0.55  0.12  0.22  0.09  0.55  0.23  
31          0.40  0.14  0.64  0.74  0.55  0.12  0.22  0.09  0.55  0.23  
32          0.40  0.14  0.64  0.74  0.55  0.12  0.22  0.09  0.55  0.23  
33          0.40  0.14  0.64  0.74  0.55  0.12  0.22  0.09  0.55  0.23  
34          0.42  0.15  0.67  0.78  0.58  0.13  0.23  0.10  0.58  0.24  
35          0.42  0.15  0.67  0.78  0.58  0.13  0.23  0.10  0.58  0.24  
36          0.42  0.15  0.67  0.78  0.58  0.13  0.23  0.10  0.58  0.24  
37          0.42  0.15  0.67  0.78  0.58  0.13  0.23  0.10  0.58  0.24  
38          0.42  0.15  0.67  0.78  0.58  0.13  0.23  0.10  0.58  0.24  
39          0.42  0.15  0.67  0.78  0.58  0.13  0.23  0.10  0.58  0.24  
40          0.42  0.15  0.67  0.78  0.58  0.13  0.23  0.10  0.58  0.24  
41          0.42  0.15  0.67  0.78  0.58  0.13  0.23  0.10  0.58  0.24  
42          0.42  0.15  0.67  0.78  0.58  0.13  0.23  0.10  0.58  0.24  
43          0.42  0.15  0.67  0.78  0.58  0.13  0.23  0.10  0.58  0.24  
44          0.42  0.15  0.67  0.78  0.58  0.13  0.23  0.10  0.58  0.24  
45          0.42  0.15  0.67  0.78  0.58  0.13  0.23  0.10  0.58  0.24  

[*,*,F3 ]:  K1    K2    K3    K4    K5    K6    K7    K8    K9    K10   :=
1           0.29  0.12  0.47  0.71  0.56  0.17  0.23  0.15  0.45  0.24  
2           0.29  0.12  0.47  0.71  0.56  0.17  0.23  0.15  0.45  0.24  
3           0.29  0.12  0.47  0.71  0.56  0.17  0.23  0.15  0.45  0.24  
4           0.29  0.12  0.47  0.71  0.56  0.17  0.23  0.15  0.45  0.24  
5           0.29  0.12  0.47  0.71  0.56  0.17  0.23  0.15  0.45  0.24  
6           0.29  0.12  0.47  0.71  0.56  0.17  0.23  0.15  0.45  0.24  
7           0.29  0.12  0.47  0.71  0.56  0.17  0.23  0.15  0.45  0.24  
8           0.29  0.12  0.47  0.71  0.56  0.17  0.23  0.15  0.45  0.24  
9           0.29  0.12  0.47  0.71  0.56  0.17  0.23  0.15  0.45  0.24  
10          0.29  0.12  0.47  0.71  0.56  0.17  0.23  0.15  0.45  0.24  
11          0.29  0.12  0.47  0.71  0.56  0.17  0.23  0.15  0.45  0.24  
12          0.29  0.12  0.47  0.71  0.56  0.17  0.23  0.15  0.45  0.24  
13          0.29  0.12  0.47  0.71  0.56  0.17  0.23  0.15  0.45  0.24  
14          0.29  0.12  0.47  0.71  0.56  0.17  0.23  0.15  0.45  0.24  
15          0.29  0.12  0.47  0.71  0.56  0.17  0.23  0.15  0.45  0.24  
16          0.29  0.12  0.47  0.71  0.56  0.17  0.23  0.15  0.45  0.24  
17          0.29  0.12  0.47  0.71  0.56  0.17  0.23  0.15  0.45  0.24  
18          0.29  0.12  0.47  0.71  0.56  0.17  0.23  0.15  0.45  0.24  
19          0.29  0.12  0.47  0.71  0.56  0.17  0.23  0.15  0.45  0.24  
20          0.29  0.12  0.47  0.71  0.56  0.17  0.23  0.15  0.45  0.24  
21          0.29  0.12  0.47  0.71  0.56  0.17  0.23  0.15  0.45  0.24  
22          0.29  0.12  0.47  0.71  0.56  0.17  0.23  0.15  0.45  0.24  
23          0.29  0.12  0.47  0.71  0.56  0.17  0.23  0.15  0.45  0.24  
24          0.29  0.12  0.47  0.71  0.56  0.17  0.23  0.15  0.45  0.24  
25          0.27  0.11  0.45  0.67  0.54  0.16  0.22  0.14  0.43  0.23  
26          0.27  0.11  0.45  0.67  0.54  0.16  0.22  0.14  0.43  0.23  
27          0.27  0.11  0.45  0.67  0.54  0.16  0.22  0.14  0.43  0.23  
28          0.27  0.11  0.45  0.67  0.54  0.16  0.22  0.14  0.43  0.23  
29          0.27  0.11  0.45  0.67  0.54  0.16  0.22  0.14  0.43  0.23  
30          0.27  0.11  0.45  0.67  0.54  0.16  0.22  0.14  0.43  0.23  
31          0.27  0.11  0.45  0.67  0.54  0.16  0.22  0.14  0.43  0.23  
32          0.27  0.11  0.45  0.67  0.54  0.16  0.22  0.14  0.43  0.23  
33          0.27  0.11  0.45  0.67  0.54  0.16  0.22  0.14  0.43  0.23  
34          0.29  0.12  0.47  0.71  0.56  0.17  0.23  0.15  0.45  0.24  
35          0.29  0.12  0.47  0.71  0.56  0.17  0.23  0.15  0.45  0.24  
36          0.29  0.12  0.47  0.71  0.56  0.17  0.23  0.15  0.45  0.24  
37          0.29  0.12  0.47  0.71  0.56  0.17  0.23  0.15  0.45  0.24  
38          0.29  0.12  0.47  0.71  0.56  0.17  0.23  0.15  0.45  0.24  
39          0.29  0.12  0.47  0.71  0.56  0.17  0.23  0.15  0.45  0.24  
40          0.29  0.12  0.47  0.71  0.56  0.17  0.23  0.15  0.45  0.24  
41          0.29  0.12  0.47  0.71  0.56  0.17  0.23  0.15  0.45  0.24  
42          0.29  0.12  0.47  0.71  0.56  0.17  0.23  0.15  0.45  0.24  
43          0.29  0.12  0.47  0.71  0.56  0.17  0.23  0.15  0.45  0.24  
44          0.29  0.12  0.47  0.71  0.56  0.17  0.23  0.15  0.45  0.24  
45          0.29  0.12  0.47  0.71  0.56  0.17  0.23  0.15  0.45  0.24  
; # downloads resource k can do at front f in time t if starting or ending flight

param W: 
	F1        F2        F3        :=
1	599.05    599.05    599.05    
2	2276.38   2276.38   2276.38   
3	2276.38   2276.38   2276.38   
4	2276.38   2276.38   2276.38   
5	2276.38   2276.38   2276.38   
6	2276.38   2276.38   2276.38   
7	2276.38   2276.38   2276.38   
8	2276.38   2276.38   2276.38   
9	2276.38   2276.38   2276.38   
10	2276.38   2276.38   2276.38   
11	2276.38   2276.38   2276.38   
12	2276.38   2276.38   2276.38   
13	2276.38   2276.38   2276.38   
14	2276.38   2276.38   2276.38   
15	2276.38   2276.38   2276.38   
16	2276.38   2276.38   2276.38   
17	2276.38   2276.38   2276.38   
18	2276.38   2276.38   2276.38   
19	2635.81   2635.81   2635.81   
20	2635.81   2635.81   2635.81   
21	2635.81   2635.81   2635.81   
22	2635.81   2635.81   2635.81   
23	2635.81   2635.81   2635.81   
24	2635.81   2635.81   2635.81   
25	2635.81   2635.81   2635.81   
26	2635.81   2635.81   2635.81   
27	2635.81   2635.81   2635.81   
28	2635.81   2635.81   2635.81   
29	2635.81   2635.81   2635.81   
30	2635.81   2635.81   2635.81   
31	2635.81   2635.81   2635.81   
32	2635.81   2635.81   2635.81   
33	2635.81   2635.81   2635.81   
34	2635.81   2635.81   2635.81   
35	2276.38   2276.38   2276.38   
36	2276.38   2276.38   2276.38   
37	2276.38   2276.38   2276.38   
38	2276.38   2276.38   2276.38   
39	2276.38   2276.38   2276.38   
40	2276.38   2276.38   2276.38   
41	2276.38   2276.38   2276.38   
42	2276.38   2276.38   2276.38   
43	2276.38   2276.38   2276.38   
44	2276.38   2276.38   2276.38   
45	599.05    599.05    599.05    
; # water needed at front f in time slot t

param M := 100000000; 

param a1:= 10000000;

param a2:= 100;

param a3:= 0.0001;
